33D32945 STP File, STP Format Version 1.0

SECTION Comments
Name "tetrahedron"
Problem "Euclidean Steiner Tree Problem"
Remark "Converted automatically"
END

SECTION Graph
Nodes 4
END

SECTION Coordinates
DDD 1 0.00000000000000 0.00000000000000 0.00000000000000 
DDD 2 1.00000000000000 0.00000000000000 0.00000000000000 
DDD 3 0.50000000000000 0.86602540000000 0.00000000000000 
DDD 4 0.50000000000000 0.28867513000000 0.81649658000000 
END

EOF
